Route #1: 4 45 29 5 48 30
Route #2: 2 62 28 22 61 21
Route #3: 47 36 60 20 37 15 57 27
Route #4: 34 52 13 54 19 8 46
Route #5: 35 14 59 11 53
Route #6: 26 58 31 10 38 7
Route #7: 32 50 18 55 25 9 39
Route #8: 12 40 3 44 24 49 16
Route #9: 23 56 41 64 42 43 1
Route #10: 6 33 63 51 17
Cost 811